SAT
-1 -100 -85 -99 -98 -90 97 46 -34 -79 -17 -13 23 92 -26 77 -12 -49 -51 52 25 22 -19 24 32 40 -60 -72 37 -61 -33 80 -31 29 -74 -21 88 78 -71 -10 83 -70 -95 -91 -15 36 -9 76 -89 45 8 -53 58 -38 11 -63 -62 56 -68 -16 35 -87 -57 18 -6 93 -41 -82 27 -84 30 94 -59 -96 2 -66 48 75 -55 86 42 -64 -65 54 43 -50 47 -14 7 -69 -73 4 -3 20 -5 -39 81 67 -44 -28 0
